(set-info :source |
 Generated by Alive 0.1
 More info in N. P. Lopes, D. Menendez, S. Nagarakatte, J. Regehr.
 Provably Correct Peephole Optimizations with Alive. In PLDI'15.
|)

(set-info :status unknown)
(declare-fun C4 () (_ BitVec 25))
(declare-fun C2 () (_ BitVec 25))
(declare-fun C3 () (_ BitVec 25))
(declare-fun C1 () (_ BitVec 25))
(declare-fun %a () (_ BitVec 25))
(assert
 (let ((?x160205 (ite (= (bvand %a C3) C4) (_ bv1 1) (_ bv0 1))))
 (let ((?x156177 (ite (= (bvand %a C1) C2) (_ bv1 1) (_ bv0 1))))
 (let (($x157461 (and (distinct (bvand ?x156177 ?x160205) (ite (= (bvand %a (bvor C1 C3)) (bvor C2 C4)) (_ bv1 1) (_ bv0 1))) true)))
 (let (($x159954 (= (bvand C3 C4) C4)))
 (let ((?x130232 (bvand C1 C2)))
 (let (($x145013 (= ?x130232 C2)))
 (let (($x157010 (= (bvand (bvand C1 C3) (bvxor C2 C4)) (_ bv0 25))))
 (and $x157010 $x145013 $x159954 $x157461)))))))))
(check-sat)
